(set-logic HORN)

(declare-datatypes ((TSLL 0)) (((TSLL  (next Int) (prev Int) (inner Int)))))
(declare-datatypes ((HeapObject 0)) (((O_Int  (getInt Int)) (O_UInt  (getUInt Int)) (O_Addr  (getAddr Int)) (O_TSLL  (getTSLL TSLL)) (defObj ))))
(declare-datatypes ((Heap 0)) (((HeapCtor  (HeapSize Int) (HeapContents (Array Int HeapObject))))))

(declare-fun |inv_main17| ( Heap Int ) Bool)
(declare-fun |inv_main39| ( Heap Int Int ) Bool)
(declare-fun |inv_main96| ( Heap Int Int Int Int ) Bool)
(declare-fun |inv_main47| ( Heap Int Int ) Bool)
(declare-fun |inv_main33| ( Heap Int Int ) Bool)
(declare-fun |inv_main32| ( Heap Int Int Int ) Bool)
(declare-fun |inv_main119| ( Heap Int Int ) Bool)
(declare-fun |inv_main15| ( Heap Int ) Bool)
(declare-fun |inv_main4| ( Heap Int ) Bool)
(declare-fun |inv_main112| ( Heap Int Int ) Bool)
(declare-fun |inv_main72| ( Heap Int Int Int Int ) Bool)
(declare-fun |inv_main51| ( Heap Int Int ) Bool)
(declare-fun |inv_main27| ( Heap Int Int ) Bool)
(declare-fun |inv_main12| ( Heap Int ) Bool)
(declare-fun |inv_main20| ( Heap Int ) Bool)
(declare-fun |inv_main2| ( Heap ) Bool)
(declare-fun |inv_main48| ( Heap Int Int ) Bool)
(declare-fun |inv_main66| ( Heap Int Int ) Bool)
(declare-fun |inv_main101| ( Heap Int Int ) Bool)
(declare-fun |inv_main22| ( Heap Int Int ) Bool)
(declare-fun |inv_main114| ( Heap Int Int ) Bool)
(declare-fun |inv_main3| ( Heap Int ) Bool)
(declare-fun |inv_main56| ( Heap Int Int ) Bool)
(declare-fun |inv_main53| ( Heap Int Int ) Bool)
(declare-fun |CHC_COMP_FALSE| ( ) Bool)
(declare-fun |inv_main107| ( Heap Int Int ) Bool)
(declare-fun |inv_main83| ( Heap Int Int Int Int ) Bool)
(declare-fun |inv_main34| ( Heap Int Int ) Bool)
(declare-fun |inv_main122| ( Heap Int Int ) Bool)
(declare-fun |inv_main90| ( Heap Int Int Int Int ) Bool)
(declare-fun |inv_main16| ( Heap Int Int ) Bool)
(declare-fun |inv_main52| ( Heap Int Int Int ) Bool)
(declare-fun |inv_main104| ( Heap Int Int ) Bool)
(declare-fun |inv_main78| ( Heap Int Int Int Int ) Bool)
(declare-fun |inv_main8| ( Heap Int ) Bool)
(declare-fun |inv_main11| ( Heap Int ) Bool)
(declare-fun |inv_main44| ( Heap Int Int ) Bool)
(declare-fun |inv_main71| ( Heap Int Int Int ) Bool)
(declare-fun |inv_main85| ( Heap Int Int Int Int ) Bool)
(declare-fun |inv_main88| ( Heap Int Int Int Int ) Bool)
(declare-fun |inv_main94| ( Heap Int Int Int Int ) Bool)
(declare-fun |inv_main31| ( Heap Int Int ) Bool)
(declare-fun |inv_main58| ( Heap Int Int Int ) Bool)

(assert
  (forall ( (v_0 Heap) ) 
    (=>
      (and
        (and true (= v_0 (HeapCtor 0 ((as const (Array Int HeapObject)) defObj))))
      )
      (inv_main2 v_0)
    )
  )
)
(assert
  (forall ( (A Int) (B Heap) (C TSLL) (D Heap) ) 
    (=>
      (and
        (inv_main2 D)
        (let ((a!1 (HeapCtor (+ 1 (HeapSize D))
                     (store (HeapContents D) (+ 1 (HeapSize D)) (O_TSLL C)))))
  (and (= A (+ 1 (HeapSize D))) (= B a!1)))
      )
      (inv_main3 B A)
    )
  )
)
(assert
  (forall ( (A Int) (B Heap) (C TSLL) (D Int) (E Heap) (F Int) (G Int) (H Int) (I Int) (J Heap) ) 
    (=>
      (and
        (inv_main34 J I H)
        (let ((a!1 (ite (and (not (<= H 0)) (>= (HeapSize J) H))
                (select (HeapContents J) H)
                defObj))
      (a!4 (HeapCtor (+ 1 (HeapSize E))
                     (store (HeapContents E) (+ 1 (HeapSize E)) (O_TSLL C)))))
(let ((a!2 (O_TSLL (TSLL 0 (prev (getTSLL a!1)) (inner (getTSLL a!1))))))
(let ((a!3 (ite (and (not (<= H 0)) (>= (HeapSize J) H))
                (HeapCtor (HeapSize J) (store (HeapContents J) H a!2))
                J)))
  (and (= E a!3)
       (not (= 0 F))
       (= A (+ 1 (HeapSize E)))
       (= G 0)
       (not (= F 0))
       (= F H)
       (= D I)
       ((_ is O_TSLL) a!1)
       (= B a!4)))))
      )
      (inv_main52 B D F A)
    )
  )
)
(assert
  (forall ( (A Int) (B Int) (C Int) (D Int) (E Heap) ) 
    (=>
      (and
        (inv_main83 E D C B A)
        (let ((a!1 (ite (and (not (<= A 0)) (>= (HeapSize E) A))
                (select (HeapContents E) A)
                defObj)))
  (and ((_ is O_TSLL) a!1) (= 0 (next (getTSLL a!1)))))
      )
      (inv_main88 E D C B A)
    )
  )
)
(assert
  (forall ( (A Int) (B Int) (C Int) (D Int) (E Heap) ) 
    (=>
      (and
        (inv_main72 E D C B A)
        (and (not (<= B 1)) (= 0 A))
      )
      (inv_main96 E D C B A)
    )
  )
)
(assert
  (forall ( (A Heap) (B Int) (C Heap) ) 
    (=>
      (and
        (inv_main3 C B)
        (let ((a!1 (ite (and (not (<= B 0)) (>= (HeapSize C) B))
                (select (HeapContents C) B)
                defObj)))
(let ((a!2 (O_TSLL (TSLL 0 (prev (getTSLL a!1)) (inner (getTSLL a!1))))))
(let ((a!3 (ite (and (not (<= B 0)) (>= (HeapSize C) B))
                (HeapCtor (HeapSize C) (store (HeapContents C) B a!2))
                C)))
  (and ((_ is O_TSLL) a!1) (= A a!3)))))
      )
      (inv_main4 A B)
    )
  )
)
(assert
  (forall ( (A Int) (B Int) (C Int) (D Int) (E Heap) ) 
    (=>
      (and
        (inv_main72 E D C B A)
        (and (<= B 1) (= 0 A))
      )
      (inv_main94 E D C B A)
    )
  )
)
(assert
  (forall ( (A Int) (B Int) (C Int) (D Int) (E Heap) ) 
    (=>
      (and
        (inv_main71 E D C B)
        (let ((a!1 (ite (and (not (<= C 0)) (>= (HeapSize E) C))
                (select (HeapContents E) C)
                defObj)))
  (and ((_ is O_TSLL) a!1) (= A (inner (getTSLL a!1)))))
      )
      (inv_main72 E D C B A)
    )
  )
)
(assert
  (forall ( (A Int) (B Int) (C Int) (D Int) (E Int) (F Heap) (G Int) (H Int) (I Int) (J Int) (K Heap) ) 
    (=>
      (and
        (inv_main88 K J I H G)
        (let ((a!1 (ite (and (not (<= G 0)) (>= (HeapSize K) G))
                (select (HeapContents K) G)
                defObj)))
  (and (= D I)
       (= C H)
       (= B G)
       (= A (inner (getTSLL a!1)))
       (= E J)
       ((_ is O_TSLL) a!1)
       (= F K)))
      )
      (inv_main72 F E D C A)
    )
  )
)
(assert
  (forall ( (A Heap) (B Int) (C Int) (D Heap) ) 
    (=>
      (and
        (inv_main112 D C B)
        (let ((a!1 (ite (and (not (<= B 0)) (>= (HeapSize D) B))
                (select (HeapContents D) B)
                defObj))
      (a!2 (ite (and (not (<= B 0)) (>= (HeapSize D) B))
                (HeapCtor (HeapSize D) (store (HeapContents D) B defObj))
                D)))
  (and (= 0 (next (getTSLL a!1))) ((_ is O_TSLL) a!1) (= A a!2)))
      )
      (inv_main122 A C B)
    )
  )
)
(assert
  (forall ( (A Heap) (B Int) (C Int) (D Heap) ) 
    (=>
      (and
        (inv_main4 D C)
        (let ((a!1 (ite (and (not (<= C 0)) (>= (HeapSize D) C))
                (select (HeapContents D) C)
                defObj)))
(let ((a!2 (O_TSLL (TSLL (next (getTSLL a!1)) 0 (inner (getTSLL a!1))))))
(let ((a!3 (ite (and (not (<= C 0)) (>= (HeapSize D) C))
                (HeapCtor (HeapSize D) (store (HeapContents D) C a!2))
                D)))
  (and (= B 0) (= B C) ((_ is O_TSLL) a!1) (= A a!3)))))
      )
      (inv_main8 A B)
    )
  )
)
(assert
  (forall ( (A Int) (B Int) (C Int) (D Int) (E Heap) (v_5 Int) ) 
    (=>
      (and
        (inv_main72 E D C B A)
        (and (= B 0) (not (= 0 A)) (= 1 v_5))
      )
      (inv_main78 E D C v_5 A)
    )
  )
)
(assert
  (forall ( (A Int) (B Int) (C Int) (D Int) (E Heap) (v_5 Int) ) 
    (=>
      (and
        (inv_main72 E D C B A)
        (and (not (= B 0)) (not (= 0 A)) (= 2 v_5))
      )
      (inv_main78 E D C v_5 A)
    )
  )
)
(assert
  (forall ( (A Int) (B Int) (C Int) (D Int) (E Heap) ) 
    (=>
      (and
        (inv_main78 E D C B A)
        (let ((a!1 (ite (and (not (<= A 0)) (>= (HeapSize E) A))
                (select (HeapContents E) A)
                defObj)))
(let ((a!2 (not (= 0 (inner (getTSLL a!1))))))
  (and ((_ is O_TSLL) a!1) a!2)))
      )
      (inv_main85 E D C B A)
    )
  )
)
(assert
  (forall ( (A Heap) (B Int) (C Int) (D Heap) ) 
    (=>
      (and
        (inv_main16 D C B)
        (let ((a!1 (ite (and (not (<= C 0)) (>= (HeapSize D) C))
                (select (HeapContents D) C)
                defObj)))
(let ((a!2 (O_TSLL (TSLL (next (getTSLL a!1)) (prev (getTSLL a!1)) B))))
(let ((a!3 (ite (and (not (<= C 0)) (>= (HeapSize D) C))
                (HeapCtor (HeapSize D) (store (HeapContents D) C a!2))
                D)))
  (and ((_ is O_TSLL) a!1) (= A a!3)))))
      )
      (inv_main15 A C)
    )
  )
)
(assert
  (forall ( (A Int) (B Int) (C Heap) (D Int) (E Int) (F Int) (G Heap) (H Int) (I Int) (J Int) (K Int) (L Heap) ) 
    (=>
      (and
        (inv_main58 L K J I)
        (let ((a!1 (ite (and (not (<= J 0)) (>= (HeapSize L) J))
                (select (HeapContents L) J)
                defObj))
      (a!2 (or (and (= H 1) (= D 0)) (and (= H 0) (not (= D 0))))))
  (and (= G L)
       (= A E)
       (= E J)
       (= D (inner (getTSLL a!1)))
       (= B F)
       (= I 0)
       (= H 0)
       (= F K)
       ((_ is O_TSLL) a!1)
       a!2
       (= C G)))
      )
      (inv_main56 C B A)
    )
  )
)
(assert
  (forall ( (A Heap) (B Int) (C Int) (D Heap) ) 
    (=>
      (and
        (inv_main51 D C B)
        (let ((a!1 (ite (and (not (<= B 0)) (>= (HeapSize D) B))
                (select (HeapContents D) B)
                defObj)))
(let ((a!2 (not (<= (inner (getTSLL a!1)) 0))))
(let ((a!3 (and a!2 (>= (HeapSize D) (inner (getTSLL a!1))))))
(let ((a!4 (ite a!3 (select (HeapContents D) (inner (getTSLL a!1))) defObj)))
(let ((a!5 (O_TSLL (TSLL 0 (prev (getTSLL a!4)) (inner (getTSLL a!4))))))
(let ((a!6 (HeapCtor (HeapSize D)
                     (store (HeapContents D) (inner (getTSLL a!1)) a!5))))
  (and ((_ is O_TSLL) a!4) ((_ is O_TSLL) a!1) (= A (ite a!3 a!6 D)))))))))
      )
      (inv_main53 A C B)
    )
  )
)
(assert
  (forall ( (A Heap) (B Int) (C Heap) ) 
    (=>
      (and
        (inv_main15 C B)
        (let ((a!1 (ite (and (not (<= B 0)) (>= (HeapSize C) B))
                (select (HeapContents C) B)
                defObj)))
(let ((a!2 (not (<= (inner (getTSLL a!1)) 0))))
(let ((a!3 (and a!2 (>= (HeapSize C) (inner (getTSLL a!1))))))
(let ((a!4 (ite a!3 (select (HeapContents C) (inner (getTSLL a!1))) defObj)))
(let ((a!5 (O_TSLL (TSLL 0 (prev (getTSLL a!4)) (inner (getTSLL a!4))))))
(let ((a!6 (HeapCtor (HeapSize C)
                     (store (HeapContents C) (inner (getTSLL a!1)) a!5))))
  (and ((_ is O_TSLL) a!4) ((_ is O_TSLL) a!1) (= A (ite a!3 a!6 C)))))))))
      )
      (inv_main17 A B)
    )
  )
)
(assert
  (forall ( (A Int) (B Int) (C Int) (D Heap) ) 
    (=>
      (and
        (inv_main47 D C B)
        (let ((a!1 (ite (and (not (<= B 0)) (>= (HeapSize D) B))
                (select (HeapContents D) B)
                defObj)))
  (and ((_ is O_TSLL) a!1) (= A (inner (getTSLL a!1)))))
      )
      (inv_main58 D C B A)
    )
  )
)
(assert
  (forall ( (A Int) (B Heap) (C Int) (D Int) (E Int) (F Heap) ) 
    (=>
      (and
        (inv_main34 F E D)
        (let ((a!1 (ite (and (not (<= D 0)) (>= (HeapSize F) D))
                (select (HeapContents F) D)
                defObj)))
(let ((a!2 (O_TSLL (TSLL 0 (prev (getTSLL a!1)) (inner (getTSLL a!1))))))
(let ((a!3 (ite (and (not (<= D 0)) (>= (HeapSize F) D))
                (HeapCtor (HeapSize F) (store (HeapContents F) D a!2))
                F)))
  (and (= 0 C) (= A E) (= C D) ((_ is O_TSLL) a!1) (= B a!3)))))
      )
      (inv_main39 B A C)
    )
  )
)
(assert
  (forall ( (A Int) (B Heap) (C Int) (D Int) (E Int) (F Int) (G Heap) ) 
    (=>
      (and
        (inv_main34 G F E)
        (let ((a!1 (ite (and (not (<= E 0)) (>= (HeapSize G) E))
                (select (HeapContents G) E)
                defObj)))
(let ((a!2 (O_TSLL (TSLL 0 (prev (getTSLL a!1)) (inner (getTSLL a!1))))))
(let ((a!3 (ite (and (not (<= E 0)) (>= (HeapSize G) E))
                (HeapCtor (HeapSize G) (store (HeapContents G) E a!2))
                G)))
  (and (not (= 0 C))
       (not (= D 0))
       (not (= C 0))
       (= C E)
       (= A F)
       ((_ is O_TSLL) a!1)
       (= B a!3)))))
      )
      (inv_main48 B A C)
    )
  )
)
(assert
  (forall ( (A Heap) (B Int) (C Int) (D Heap) ) 
    (=>
      (and
        (inv_main31 D C B)
        (let ((a!1 (ite (and (not (<= B 0)) (>= (HeapSize D) B))
                (select (HeapContents D) B)
                defObj)))
(let ((a!2 (not (<= (next (getTSLL a!1)) 0))))
(let ((a!3 (and a!2 (>= (HeapSize D) (next (getTSLL a!1))))))
(let ((a!4 (ite a!3 (select (HeapContents D) (next (getTSLL a!1))) defObj)))
(let ((a!5 (O_TSLL (TSLL (next (getTSLL a!4)) B (inner (getTSLL a!4))))))
(let ((a!6 (HeapCtor (HeapSize D)
                     (store (HeapContents D) (next (getTSLL a!1)) a!5))))
  (and ((_ is O_TSLL) a!4) ((_ is O_TSLL) a!1) (= A (ite a!3 a!6 D)))))))))
      )
      (inv_main33 A C B)
    )
  )
)
(assert
  (forall ( (A Int) (B Int) (C Int) (D Int) (E Heap) ) 
    (=>
      (and
        (inv_main78 E D C B A)
        (let ((a!1 (ite (and (not (<= A 0)) (>= (HeapSize E) A))
                (select (HeapContents E) A)
                defObj)))
  (and ((_ is O_TSLL) a!1) (= 0 (inner (getTSLL a!1)))))
      )
      (inv_main83 E D C B A)
    )
  )
)
(assert
  (forall ( (A Int) (B Int) (C Int) (D Heap) ) 
    (=>
      (and
        (inv_main58 D C B A)
        (not (= A 0))
      )
      (inv_main27 D C B)
    )
  )
)
(assert
  (forall ( (A Int) (B Int) (C Heap) (D Int) (E Int) (F Int) (G Heap) (H Int) (I Int) (J Int) (K Int) (L Heap) ) 
    (=>
      (and
        (inv_main58 L K J I)
        (let ((a!1 (ite (and (not (<= J 0)) (>= (HeapSize L) J))
                (select (HeapContents L) J)
                defObj))
      (a!2 (or (and (= H 1) (= D 0)) (and (= H 0) (not (= D 0))))))
  (and (= G L)
       (= A E)
       (= E J)
       (= D (inner (getTSLL a!1)))
       (= B F)
       (= I 0)
       (not (= H 0))
       (= F K)
       ((_ is O_TSLL) a!1)
       a!2
       (= C G)))
      )
      (inv_main27 C B A)
    )
  )
)
(assert
  (forall ( (A Int) (B Int) (C Heap) (v_3 Int) ) 
    (=>
      (and
        (inv_main22 C B A)
        (and (not (= A 0)) (= v_3 B))
      )
      (inv_main27 C B v_3)
    )
  )
)
(assert
  (forall ( (A Int) (B Heap) (C Int) (D Int) (E Heap) (F Int) (G Int) (H Int) (I Heap) (v_9 Int) ) 
    (=>
      (and
        (inv_main22 I H G)
        (let ((a!1 (ite (and (not (<= H 0)) (>= (HeapSize I) H))
                (select (HeapContents I) H)
                defObj))
      (a!2 (or (and (= C 0) (= F 1)) (and (not (= C 0)) (= F 0)))))
  (and (= E I)
       (= D H)
       (= A D)
       (= G 0)
       (not (= F 0))
       (= C (inner (getTSLL a!1)))
       ((_ is O_TSLL) a!1)
       a!2
       (= B E)
       (= v_9 A)))
      )
      (inv_main27 B A v_9)
    )
  )
)
(assert
  (forall ( (A Int) (B Heap) (C Int) (D Int) (E Int) (F Int) (G Heap) (v_7 Int) ) 
    (=>
      (and
        (inv_main27 G F E)
        (and (= 0 D) (= D F) (= C 0) (= A 0) (= B G) (= v_7 D))
      )
      (inv_main66 B D v_7)
    )
  )
)
(assert
  (forall ( (A Int) (B Heap) (C TSLL) (D Int) (E Int) (F Int) (G Heap) ) 
    (=>
      (and
        (inv_main27 G F E)
        (let ((a!1 (HeapCtor (+ 1 (HeapSize G))
                     (store (HeapContents G) (+ 1 (HeapSize G)) (O_TSLL C)))))
  (and (not (= D 0)) (= A (+ 1 (HeapSize G))) (= B a!1)))
      )
      (inv_main32 B F E A)
    )
  )
)
(assert
  (forall ( (A Int) (B Heap) (C Int) (D Int) (E Heap) (F Int) (G Int) (H Int) (I Heap) ) 
    (=>
      (and
        (inv_main22 I H G)
        (let ((a!1 (ite (and (not (<= H 0)) (>= (HeapSize I) H))
                (select (HeapContents I) H)
                defObj))
      (a!2 (or (and (= C 0) (= F 1)) (and (not (= C 0)) (= F 0)))))
  (and (= E I)
       (= D H)
       (= A D)
       (= G 0)
       (= F 0)
       (= C (inner (getTSLL a!1)))
       ((_ is O_TSLL) a!1)
       a!2
       (= B E)))
      )
      (inv_main20 B A)
    )
  )
)
(assert
  (forall ( (A Heap) (B Int) (C Int) (D Heap) ) 
    (=>
      (and
        (inv_main122 D C B)
        (let ((a!1 (ite (and (not (<= C 0)) (>= (HeapSize D) C))
                (select (HeapContents D) C)
                defObj)))
(let ((a!2 (O_TSLL (TSLL (next (getTSLL a!1)) (prev (getTSLL a!1)) 0))))
(let ((a!3 (ite (and (not (<= C 0)) (>= (HeapSize D) C))
                (HeapCtor (HeapSize D) (store (HeapContents D) C a!2))
                D)))
  (and ((_ is O_TSLL) a!1) (= A a!3)))))
      )
      (inv_main104 A C B)
    )
  )
)
(assert
  (forall ( (A Int) (B Int) (C Heap) (D Int) (E Int) (F Int) (G Heap) ) 
    (=>
      (and
        (inv_main101 G F E)
        (let ((a!1 (ite (and (not (<= F 0)) (>= (HeapSize G) F))
                (select (HeapContents G) F)
                defObj)))
  (and (= 0 D)
       (= B F)
       (= D (inner (getTSLL a!1)))
       (= A E)
       ((_ is O_TSLL) a!1)
       (= C G)))
      )
      (inv_main104 C B D)
    )
  )
)
(assert
  (forall ( (A Int) (B Heap) (C Int) (D Int) (E Int) (F Heap) ) 
    (=>
      (and
        (inv_main34 F E D)
        (let ((a!1 (ite (and (not (<= D 0)) (>= (HeapSize F) D))
                (select (HeapContents F) D)
                defObj)))
(let ((a!2 (O_TSLL (TSLL 0 (prev (getTSLL a!1)) (inner (getTSLL a!1))))))
(let ((a!3 (ite (and (not (<= D 0)) (>= (HeapSize F) D))
                (HeapCtor (HeapSize F) (store (HeapContents F) D a!2))
                F)))
  (and (not (= 0 C)) (= A E) (= C 0) (= C D) ((_ is O_TSLL) a!1) (= B a!3)))))
      )
      (inv_main44 B A C)
    )
  )
)
(assert
  (forall ( (A Heap) (B Int) (C Heap) ) 
    (=>
      (and
        (inv_main12 C B)
        (let ((a!1 (ite (and (not (<= B 0)) (>= (HeapSize C) B))
                (select (HeapContents C) B)
                defObj)))
(let ((a!2 (O_TSLL (TSLL (next (getTSLL a!1)) (prev (getTSLL a!1)) 0))))
(let ((a!3 (ite (and (not (<= B 0)) (>= (HeapSize C) B))
                (HeapCtor (HeapSize C) (store (HeapContents C) B a!2))
                C)))
  (and ((_ is O_TSLL) a!1) (= A a!3)))))
      )
      (inv_main11 A B)
    )
  )
)
(assert
  (forall ( (A Heap) (B Int) (C Heap) ) 
    (=>
      (and
        (inv_main17 C B)
        (let ((a!1 (ite (and (not (<= B 0)) (>= (HeapSize C) B))
                (select (HeapContents C) B)
                defObj)))
(let ((a!2 (not (<= (inner (getTSLL a!1)) 0))))
(let ((a!3 (and a!2 (>= (HeapSize C) (inner (getTSLL a!1))))))
(let ((a!4 (ite a!3 (select (HeapContents C) (inner (getTSLL a!1))) defObj)))
(let ((a!5 (O_TSLL (TSLL (next (getTSLL a!4)) (prev (getTSLL a!4)) 0))))
(let ((a!6 (HeapCtor (HeapSize C)
                     (store (HeapContents C) (inner (getTSLL a!1)) a!5))))
  (and ((_ is O_TSLL) a!4) ((_ is O_TSLL) a!1) (= A (ite a!3 a!6 C)))))))))
      )
      (inv_main11 A B)
    )
  )
)
(assert
  (forall ( (A Int) (B Int) (C Int) (D Int) (E Heap) (F Int) (G Int) (H Int) (I Int) (J Int) (K Heap) (v_11 Int) ) 
    (=>
      (and
        (inv_main94 K J I H G)
        (let ((a!1 (ite (and (not (<= I 0)) (>= (HeapSize K) I))
                (select (HeapContents K) I)
                defObj)))
  (and (not (= 0 F))
       (= F (next (getTSLL a!1)))
       (= D J)
       (= C I)
       (= B H)
       (= A G)
       ((_ is O_TSLL) a!1)
       (= E K)
       (= 0 v_11)))
      )
      (inv_main71 E D F v_11)
    )
  )
)
(assert
  (forall ( (A Int) (B Heap) (C Int) (D Int) (E Int) (F Int) (G Heap) (v_7 Int) (v_8 Int) ) 
    (=>
      (and
        (inv_main27 G F E)
        (and (not (= 0 D)) (= D F) (= C 0) (= A 0) (= B G) (= v_7 D) (= 0 v_8))
      )
      (inv_main71 B D v_7 v_8)
    )
  )
)
(assert
  (forall ( (A Int) (B Int) (C Heap) ) 
    (=>
      (and
        (inv_main11 C B)
        (let ((a!1 (ite (and (not (<= B 0)) (>= (HeapSize C) B))
                (select (HeapContents C) B)
                defObj)))
  (and ((_ is O_TSLL) a!1) (= A (inner (getTSLL a!1)))))
      )
      (inv_main22 C B A)
    )
  )
)
(assert
  (forall ( (A Int) (B Int) (C Heap) (D Int) (E Int) (F Int) (G Heap) ) 
    (=>
      (and
        (inv_main101 G F E)
        (let ((a!1 (ite (and (not (<= F 0)) (>= (HeapSize G) F))
                (select (HeapContents G) F)
                defObj)))
  (and (not (= 0 D))
       (= B F)
       (= D (inner (getTSLL a!1)))
       (= A E)
       ((_ is O_TSLL) a!1)
       (= C G)))
      )
      (inv_main107 C B D)
    )
  )
)
(assert
  (forall ( (A Heap) (B Int) (C Int) (D Heap) ) 
    (=>
      (and
        (inv_main48 D C B)
        (let ((a!1 (ite (and (not (<= B 0)) (>= (HeapSize D) B))
                (select (HeapContents D) B)
                defObj)))
(let ((a!2 (O_TSLL (TSLL (next (getTSLL a!1)) (prev (getTSLL a!1)) 0))))
(let ((a!3 (ite (and (not (<= B 0)) (>= (HeapSize D) B))
                (HeapCtor (HeapSize D) (store (HeapContents D) B a!2))
                D)))
  (and ((_ is O_TSLL) a!1) (= A a!3)))))
      )
      (inv_main47 A C B)
    )
  )
)
(assert
  (forall ( (A Heap) (B Int) (C Int) (D Heap) ) 
    (=>
      (and
        (inv_main53 D C B)
        (let ((a!1 (ite (and (not (<= B 0)) (>= (HeapSize D) B))
                (select (HeapContents D) B)
                defObj)))
(let ((a!2 (not (<= (inner (getTSLL a!1)) 0))))
(let ((a!3 (and a!2 (>= (HeapSize D) (inner (getTSLL a!1))))))
(let ((a!4 (ite a!3 (select (HeapContents D) (inner (getTSLL a!1))) defObj)))
(let ((a!5 (O_TSLL (TSLL (next (getTSLL a!4)) (prev (getTSLL a!4)) 0))))
(let ((a!6 (HeapCtor (HeapSize D)
                     (store (HeapContents D) (inner (getTSLL a!1)) a!5))))
  (and ((_ is O_TSLL) a!4) ((_ is O_TSLL) a!1) (= A (ite a!3 a!6 D)))))))))
      )
      (inv_main47 A C B)
    )
  )
)
(assert
  (forall ( (A Int) (B Int) (C Heap) ) 
    (=>
      (and
        (inv_main107 C B A)
        (let ((a!1 (ite (and (not (<= A 0)) (>= (HeapSize C) A))
                (select (HeapContents C) A)
                defObj)))
(let ((a!2 (not (= 0 (inner (getTSLL a!1))))))
  (and ((_ is O_TSLL) a!1) a!2)))
      )
      (inv_main114 C B A)
    )
  )
)
(assert
  (forall ( (A Int) (B Heap) (C TSLL) (D Heap) (E Int) (F Int) (G Int) (H Heap) ) 
    (=>
      (and
        (inv_main4 H G)
        (let ((a!1 (ite (and (not (<= G 0)) (>= (HeapSize H) G))
                (select (HeapContents H) G)
                defObj))
      (a!4 (HeapCtor (+ 1 (HeapSize D))
                     (store (HeapContents D) (+ 1 (HeapSize D)) (O_TSLL C)))))
(let ((a!2 (O_TSLL (TSLL (next (getTSLL a!1)) 0 (inner (getTSLL a!1))))))
(let ((a!3 (ite (and (not (<= G 0)) (>= (HeapSize H) G))
                (HeapCtor (HeapSize H) (store (HeapContents H) G a!2))
                H)))
  (and (= D a!3)
       (= A (+ 1 (HeapSize D)))
       (= F 0)
       (not (= E 0))
       (= E G)
       ((_ is O_TSLL) a!1)
       (= B a!4)))))
      )
      (inv_main16 B E A)
    )
  )
)
(assert
  (forall ( (A Int) (B Int) (C Int) (D Int) (E Heap) ) 
    (=>
      (and
        (inv_main83 E D C B A)
        (let ((a!1 (ite (and (not (<= A 0)) (>= (HeapSize E) A))
                (select (HeapContents E) A)
                defObj)))
(let ((a!2 (not (= 0 (next (getTSLL a!1))))))
  (and ((_ is O_TSLL) a!1) a!2)))
      )
      (inv_main90 E D C B A)
    )
  )
)
(assert
  (forall ( (A Int) (B Int) (C Int) (D Heap) (E Int) (F Int) (G Heap) ) 
    (=>
      (and
        (inv_main33 G F E)
        (let ((a!1 (ite (and (not (<= E 0)) (>= (HeapSize G) E))
                (select (HeapContents G) E)
                defObj)))
  (and (= B E) (= C F) (= A (next (getTSLL a!1))) ((_ is O_TSLL) a!1) (= D G)))
      )
      (inv_main34 D C A)
    )
  )
)
(assert
  (forall ( (A Heap) (B Int) (C Int) (D Int) (E Heap) ) 
    (=>
      (and
        (inv_main4 E D)
        (let ((a!1 (ite (and (not (<= D 0)) (>= (HeapSize E) D))
                (select (HeapContents E) D)
                defObj)))
(let ((a!2 (O_TSLL (TSLL (next (getTSLL a!1)) 0 (inner (getTSLL a!1))))))
(let ((a!3 (ite (and (not (<= D 0)) (>= (HeapSize E) D))
                (HeapCtor (HeapSize E) (store (HeapContents E) D a!2))
                E)))
  (and (not (= C 0)) (not (= B 0)) (= B D) ((_ is O_TSLL) a!1) (= A a!3)))))
      )
      (inv_main12 A B)
    )
  )
)
(assert
  (forall ( (A Heap) (B Int) (C Int) (D Int) (E Heap) ) 
    (=>
      (and
        (inv_main32 E D C B)
        (let ((a!1 (ite (and (not (<= C 0)) (>= (HeapSize E) C))
                (select (HeapContents E) C)
                defObj)))
(let ((a!2 (O_TSLL (TSLL B (prev (getTSLL a!1)) (inner (getTSLL a!1))))))
(let ((a!3 (ite (and (not (<= C 0)) (>= (HeapSize E) C))
                (HeapCtor (HeapSize E) (store (HeapContents E) C a!2))
                E)))
  (and ((_ is O_TSLL) a!1) (= A a!3)))))
      )
      (inv_main31 A D C)
    )
  )
)
(assert
  (forall ( (A Heap) (B Int) (C Int) (D Int) (E Heap) ) 
    (=>
      (and
        (inv_main52 E D C B)
        (let ((a!1 (ite (and (not (<= C 0)) (>= (HeapSize E) C))
                (select (HeapContents E) C)
                defObj)))
(let ((a!2 (O_TSLL (TSLL (next (getTSLL a!1)) (prev (getTSLL a!1)) B))))
(let ((a!3 (ite (and (not (<= C 0)) (>= (HeapSize E) C))
                (HeapCtor (HeapSize E) (store (HeapContents E) C a!2))
                E)))
  (and ((_ is O_TSLL) a!1) (= A a!3)))))
      )
      (inv_main51 A D C)
    )
  )
)
(assert
  (forall ( (A Int) (B Int) (C Heap) ) 
    (=>
      (and
        (inv_main112 C B A)
        (let ((a!1 (ite (and (not (<= A 0)) (>= (HeapSize C) A))
                (select (HeapContents C) A)
                defObj)))
(let ((a!2 (not (= 0 (next (getTSLL a!1))))))
  (and ((_ is O_TSLL) a!1) a!2)))
      )
      (inv_main119 C B A)
    )
  )
)
(assert
  (forall ( (A Int) (B Int) (C Heap) ) 
    (=>
      (and
        (inv_main107 C B A)
        (let ((a!1 (ite (and (not (<= A 0)) (>= (HeapSize C) A))
                (select (HeapContents C) A)
                defObj)))
  (and ((_ is O_TSLL) a!1) (= 0 (inner (getTSLL a!1)))))
      )
      (inv_main112 C B A)
    )
  )
)
(assert
  (forall ( (A Int) (B Heap) (C Int) (D Int) (E Int) (F Heap) (G Int) (H Int) (I Int) (J Heap) (v_10 Int) ) 
    (=>
      (and
        (inv_main104 J I H)
        (let ((a!1 (ite (and (not (<= I 0)) (>= (HeapSize J) I))
                (select (HeapContents J) I)
                defObj))
      (a!2 (ite (and (not (<= E 0)) (>= (HeapSize F) E))
                (HeapCtor (HeapSize F) (store (HeapContents F) E defObj))
                F)))
  (and (= F J)
       (not (= 0 G))
       (= E I)
       (= C (next (getTSLL a!1)))
       (= A E)
       (= G C)
       (= D H)
       ((_ is O_TSLL) a!1)
       (= B a!2)
       (= v_10 G)))
      )
      (inv_main101 B G v_10)
    )
  )
)
(assert
  (forall ( (A Int) (B Int) (C Int) (D Heap) (E Int) (F Int) (G Int) (H Int) (I Int) (J Int) (K Heap) ) 
    (=>
      (and
        (inv_main94 K J I H G)
        (let ((a!1 (ite (and (not (<= I 0)) (>= (HeapSize K) I))
                (select (HeapContents K) I)
                defObj)))
  (and (not (= 0 F))
       (= 0 E)
       (= F J)
       (= C I)
       (= B H)
       (= A G)
       (= E (next (getTSLL a!1)))
       ((_ is O_TSLL) a!1)
       (= D K)))
      )
      (inv_main101 D F E)
    )
  )
)
(assert
  (forall ( (A Int) (B Heap) ) 
    (=>
      (and
        (inv_main3 B A)
        (let ((a!1 (ite (and (not (<= A 0)) (>= (HeapSize B) A))
                (select (HeapContents B) A)
                defObj)))
  (not ((_ is O_TSLL) a!1)))
      )
      CHC_COMP_FALSE
    )
  )
)
(assert
  (forall ( (A Int) (B Heap) ) 
    (=>
      (and
        (inv_main4 B A)
        (let ((a!1 (ite (and (not (<= A 0)) (>= (HeapSize B) A))
                (select (HeapContents B) A)
                defObj)))
  (not ((_ is O_TSLL) a!1)))
      )
      CHC_COMP_FALSE
    )
  )
)
(assert
  (forall ( (A Int) (B Heap) ) 
    (=>
      (and
        (inv_main8 B A)
        true
      )
      CHC_COMP_FALSE
    )
  )
)
(assert
  (forall ( (A Int) (B Heap) ) 
    (=>
      (and
        (inv_main12 B A)
        (let ((a!1 (ite (and (not (<= A 0)) (>= (HeapSize B) A))
                (select (HeapContents B) A)
                defObj)))
  (not ((_ is O_TSLL) a!1)))
      )
      CHC_COMP_FALSE
    )
  )
)
(assert
  (forall ( (A Int) (B Int) (C Heap) ) 
    (=>
      (and
        (inv_main16 C B A)
        (let ((a!1 (ite (and (not (<= B 0)) (>= (HeapSize C) B))
                (select (HeapContents C) B)
                defObj)))
  (not ((_ is O_TSLL) a!1)))
      )
      CHC_COMP_FALSE
    )
  )
)
(assert
  (forall ( (A Int) (B Heap) ) 
    (=>
      (and
        (inv_main15 B A)
        (let ((a!1 (ite (and (not (<= A 0)) (>= (HeapSize B) A))
                (select (HeapContents B) A)
                defObj)))
  (not ((_ is O_TSLL) a!1)))
      )
      CHC_COMP_FALSE
    )
  )
)
(assert
  (forall ( (A Int) (B Heap) ) 
    (=>
      (and
        (inv_main15 B A)
        (let ((a!1 (ite (and (not (<= A 0)) (>= (HeapSize B) A))
                (select (HeapContents B) A)
                defObj)))
(let ((a!2 (not (<= (inner (getTSLL a!1)) 0))))
(let ((a!3 (and a!2 (>= (HeapSize B) (inner (getTSLL a!1))))))
(let ((a!4 (ite a!3 (select (HeapContents B) (inner (getTSLL a!1))) defObj)))
  (and ((_ is O_TSLL) a!1) (not ((_ is O_TSLL) a!4)))))))
      )
      CHC_COMP_FALSE
    )
  )
)
(assert
  (forall ( (A Int) (B Heap) ) 
    (=>
      (and
        (inv_main17 B A)
        (let ((a!1 (ite (and (not (<= A 0)) (>= (HeapSize B) A))
                (select (HeapContents B) A)
                defObj)))
  (not ((_ is O_TSLL) a!1)))
      )
      CHC_COMP_FALSE
    )
  )
)
(assert
  (forall ( (A Int) (B Heap) ) 
    (=>
      (and
        (inv_main17 B A)
        (let ((a!1 (ite (and (not (<= A 0)) (>= (HeapSize B) A))
                (select (HeapContents B) A)
                defObj)))
(let ((a!2 (not (<= (inner (getTSLL a!1)) 0))))
(let ((a!3 (and a!2 (>= (HeapSize B) (inner (getTSLL a!1))))))
(let ((a!4 (ite a!3 (select (HeapContents B) (inner (getTSLL a!1))) defObj)))
  (and ((_ is O_TSLL) a!1) (not ((_ is O_TSLL) a!4)))))))
      )
      CHC_COMP_FALSE
    )
  )
)
(assert
  (forall ( (A Int) (B Heap) ) 
    (=>
      (and
        (inv_main11 B A)
        (let ((a!1 (ite (and (not (<= A 0)) (>= (HeapSize B) A))
                (select (HeapContents B) A)
                defObj)))
  (not ((_ is O_TSLL) a!1)))
      )
      CHC_COMP_FALSE
    )
  )
)
(assert
  (forall ( (A Int) (B Int) (C Heap) ) 
    (=>
      (and
        (inv_main22 C B A)
        (let ((a!1 (ite (and (not (<= B 0)) (>= (HeapSize C) B))
                (select (HeapContents C) B)
                defObj)))
  (and (not ((_ is O_TSLL) a!1)) (= A 0)))
      )
      CHC_COMP_FALSE
    )
  )
)
(assert
  (forall ( (A Int) (B Heap) ) 
    (=>
      (and
        (inv_main20 B A)
        true
      )
      CHC_COMP_FALSE
    )
  )
)
(assert
  (forall ( (A Int) (B Int) (C Int) (D Heap) ) 
    (=>
      (and
        (inv_main32 D C B A)
        (let ((a!1 (ite (and (not (<= B 0)) (>= (HeapSize D) B))
                (select (HeapContents D) B)
                defObj)))
  (not ((_ is O_TSLL) a!1)))
      )
      CHC_COMP_FALSE
    )
  )
)
(assert
  (forall ( (A Int) (B Int) (C Heap) ) 
    (=>
      (and
        (inv_main31 C B A)
        (let ((a!1 (ite (and (not (<= A 0)) (>= (HeapSize C) A))
                (select (HeapContents C) A)
                defObj)))
  (not ((_ is O_TSLL) a!1)))
      )
      CHC_COMP_FALSE
    )
  )
)
(assert
  (forall ( (A Int) (B Int) (C Heap) ) 
    (=>
      (and
        (inv_main31 C B A)
        (let ((a!1 (ite (and (not (<= A 0)) (>= (HeapSize C) A))
                (select (HeapContents C) A)
                defObj)))
(let ((a!2 (not (<= (next (getTSLL a!1)) 0))))
(let ((a!3 (and a!2 (>= (HeapSize C) (next (getTSLL a!1))))))
(let ((a!4 (ite a!3 (select (HeapContents C) (next (getTSLL a!1))) defObj)))
  (and ((_ is O_TSLL) a!1) (not ((_ is O_TSLL) a!4)))))))
      )
      CHC_COMP_FALSE
    )
  )
)
(assert
  (forall ( (A Int) (B Int) (C Heap) ) 
    (=>
      (and
        (inv_main33 C B A)
        (let ((a!1 (ite (and (not (<= A 0)) (>= (HeapSize C) A))
                (select (HeapContents C) A)
                defObj)))
  (not ((_ is O_TSLL) a!1)))
      )
      CHC_COMP_FALSE
    )
  )
)
(assert
  (forall ( (A Int) (B Int) (C Heap) ) 
    (=>
      (and
        (inv_main34 C B A)
        (let ((a!1 (ite (and (not (<= A 0)) (>= (HeapSize C) A))
                (select (HeapContents C) A)
                defObj)))
  (not ((_ is O_TSLL) a!1)))
      )
      CHC_COMP_FALSE
    )
  )
)
(assert
  (forall ( (A Int) (B Int) (C Heap) ) 
    (=>
      (and
        (inv_main39 C B A)
        true
      )
      CHC_COMP_FALSE
    )
  )
)
(assert
  (forall ( (A Int) (B Int) (C Heap) ) 
    (=>
      (and
        (inv_main44 C B A)
        true
      )
      CHC_COMP_FALSE
    )
  )
)
(assert
  (forall ( (A Int) (B Int) (C Heap) ) 
    (=>
      (and
        (inv_main48 C B A)
        (let ((a!1 (ite (and (not (<= A 0)) (>= (HeapSize C) A))
                (select (HeapContents C) A)
                defObj)))
  (not ((_ is O_TSLL) a!1)))
      )
      CHC_COMP_FALSE
    )
  )
)
(assert
  (forall ( (A Int) (B Int) (C Int) (D Heap) ) 
    (=>
      (and
        (inv_main52 D C B A)
        (let ((a!1 (ite (and (not (<= B 0)) (>= (HeapSize D) B))
                (select (HeapContents D) B)
                defObj)))
  (not ((_ is O_TSLL) a!1)))
      )
      CHC_COMP_FALSE
    )
  )
)
(assert
  (forall ( (A Int) (B Int) (C Heap) ) 
    (=>
      (and
        (inv_main51 C B A)
        (let ((a!1 (ite (and (not (<= A 0)) (>= (HeapSize C) A))
                (select (HeapContents C) A)
                defObj)))
  (not ((_ is O_TSLL) a!1)))
      )
      CHC_COMP_FALSE
    )
  )
)
(assert
  (forall ( (A Int) (B Int) (C Heap) ) 
    (=>
      (and
        (inv_main51 C B A)
        (let ((a!1 (ite (and (not (<= A 0)) (>= (HeapSize C) A))
                (select (HeapContents C) A)
                defObj)))
(let ((a!2 (not (<= (inner (getTSLL a!1)) 0))))
(let ((a!3 (and a!2 (>= (HeapSize C) (inner (getTSLL a!1))))))
(let ((a!4 (ite a!3 (select (HeapContents C) (inner (getTSLL a!1))) defObj)))
  (and ((_ is O_TSLL) a!1) (not ((_ is O_TSLL) a!4)))))))
      )
      CHC_COMP_FALSE
    )
  )
)
(assert
  (forall ( (A Int) (B Int) (C Heap) ) 
    (=>
      (and
        (inv_main53 C B A)
        (let ((a!1 (ite (and (not (<= A 0)) (>= (HeapSize C) A))
                (select (HeapContents C) A)
                defObj)))
  (not ((_ is O_TSLL) a!1)))
      )
      CHC_COMP_FALSE
    )
  )
)
(assert
  (forall ( (A Int) (B Int) (C Heap) ) 
    (=>
      (and
        (inv_main53 C B A)
        (let ((a!1 (ite (and (not (<= A 0)) (>= (HeapSize C) A))
                (select (HeapContents C) A)
                defObj)))
(let ((a!2 (not (<= (inner (getTSLL a!1)) 0))))
(let ((a!3 (and a!2 (>= (HeapSize C) (inner (getTSLL a!1))))))
(let ((a!4 (ite a!3 (select (HeapContents C) (inner (getTSLL a!1))) defObj)))
  (and ((_ is O_TSLL) a!1) (not ((_ is O_TSLL) a!4)))))))
      )
      CHC_COMP_FALSE
    )
  )
)
(assert
  (forall ( (A Int) (B Int) (C Heap) ) 
    (=>
      (and
        (inv_main47 C B A)
        (let ((a!1 (ite (and (not (<= A 0)) (>= (HeapSize C) A))
                (select (HeapContents C) A)
                defObj)))
  (not ((_ is O_TSLL) a!1)))
      )
      CHC_COMP_FALSE
    )
  )
)
(assert
  (forall ( (A Int) (B Int) (C Int) (D Heap) ) 
    (=>
      (and
        (inv_main58 D C B A)
        (let ((a!1 (ite (and (not (<= B 0)) (>= (HeapSize D) B))
                (select (HeapContents D) B)
                defObj)))
  (and (not ((_ is O_TSLL) a!1)) (= A 0)))
      )
      CHC_COMP_FALSE
    )
  )
)
(assert
  (forall ( (A Int) (B Int) (C Heap) ) 
    (=>
      (and
        (inv_main56 C B A)
        true
      )
      CHC_COMP_FALSE
    )
  )
)
(assert
  (forall ( (A Int) (B Int) (C Heap) ) 
    (=>
      (and
        (inv_main66 C B A)
        true
      )
      CHC_COMP_FALSE
    )
  )
)
(assert
  (forall ( (A Int) (B Int) (C Int) (D Heap) ) 
    (=>
      (and
        (inv_main71 D C B A)
        (let ((a!1 (ite (and (not (<= B 0)) (>= (HeapSize D) B))
                (select (HeapContents D) B)
                defObj)))
  (not ((_ is O_TSLL) a!1)))
      )
      CHC_COMP_FALSE
    )
  )
)
(assert
  (forall ( (A Int) (B Int) (C Int) (D Int) (E Heap) ) 
    (=>
      (and
        (inv_main78 E D C B A)
        (let ((a!1 (ite (and (not (<= A 0)) (>= (HeapSize E) A))
                (select (HeapContents E) A)
                defObj)))
  (not ((_ is O_TSLL) a!1)))
      )
      CHC_COMP_FALSE
    )
  )
)
(assert
  (forall ( (A Int) (B Int) (C Int) (D Int) (E Heap) ) 
    (=>
      (and
        (inv_main85 E D C B A)
        true
      )
      CHC_COMP_FALSE
    )
  )
)
(assert
  (forall ( (A Int) (B Int) (C Int) (D Int) (E Heap) ) 
    (=>
      (and
        (inv_main83 E D C B A)
        (let ((a!1 (ite (and (not (<= A 0)) (>= (HeapSize E) A))
                (select (HeapContents E) A)
                defObj)))
  (not ((_ is O_TSLL) a!1)))
      )
      CHC_COMP_FALSE
    )
  )
)
(assert
  (forall ( (A Int) (B Int) (C Int) (D Int) (E Heap) ) 
    (=>
      (and
        (inv_main90 E D C B A)
        true
      )
      CHC_COMP_FALSE
    )
  )
)
(assert
  (forall ( (A Int) (B Int) (C Int) (D Int) (E Heap) ) 
    (=>
      (and
        (inv_main88 E D C B A)
        (let ((a!1 (ite (and (not (<= A 0)) (>= (HeapSize E) A))
                (select (HeapContents E) A)
                defObj)))
  (not ((_ is O_TSLL) a!1)))
      )
      CHC_COMP_FALSE
    )
  )
)
(assert
  (forall ( (A Int) (B Int) (C Int) (D Int) (E Heap) ) 
    (=>
      (and
        (inv_main96 E D C B A)
        true
      )
      CHC_COMP_FALSE
    )
  )
)
(assert
  (forall ( (A Int) (B Int) (C Int) (D Int) (E Heap) ) 
    (=>
      (and
        (inv_main94 E D C B A)
        (let ((a!1 (ite (and (not (<= C 0)) (>= (HeapSize E) C))
                (select (HeapContents E) C)
                defObj)))
  (not ((_ is O_TSLL) a!1)))
      )
      CHC_COMP_FALSE
    )
  )
)
(assert
  (forall ( (A Int) (B Int) (C Heap) ) 
    (=>
      (and
        (inv_main101 C B A)
        (let ((a!1 (ite (and (not (<= B 0)) (>= (HeapSize C) B))
                (select (HeapContents C) B)
                defObj)))
  (not ((_ is O_TSLL) a!1)))
      )
      CHC_COMP_FALSE
    )
  )
)
(assert
  (forall ( (A Int) (B Int) (C Heap) ) 
    (=>
      (and
        (inv_main107 C B A)
        (let ((a!1 (ite (and (not (<= A 0)) (>= (HeapSize C) A))
                (select (HeapContents C) A)
                defObj)))
  (not ((_ is O_TSLL) a!1)))
      )
      CHC_COMP_FALSE
    )
  )
)
(assert
  (forall ( (A Int) (B Int) (C Heap) ) 
    (=>
      (and
        (inv_main114 C B A)
        true
      )
      CHC_COMP_FALSE
    )
  )
)
(assert
  (forall ( (A Int) (B Int) (C Heap) ) 
    (=>
      (and
        (inv_main112 C B A)
        (let ((a!1 (ite (and (not (<= A 0)) (>= (HeapSize C) A))
                (select (HeapContents C) A)
                defObj)))
  (not ((_ is O_TSLL) a!1)))
      )
      CHC_COMP_FALSE
    )
  )
)
(assert
  (forall ( (A Int) (B Int) (C Heap) ) 
    (=>
      (and
        (inv_main119 C B A)
        true
      )
      CHC_COMP_FALSE
    )
  )
)
(assert
  (forall ( (A Int) (B Int) (C Heap) ) 
    (=>
      (and
        (inv_main122 C B A)
        (let ((a!1 (ite (and (not (<= B 0)) (>= (HeapSize C) B))
                (select (HeapContents C) B)
                defObj)))
  (not ((_ is O_TSLL) a!1)))
      )
      CHC_COMP_FALSE
    )
  )
)
(assert
  (forall ( (A Int) (B Int) (C Heap) ) 
    (=>
      (and
        (inv_main104 C B A)
        (let ((a!1 (ite (and (not (<= B 0)) (>= (HeapSize C) B))
                (select (HeapContents C) B)
                defObj)))
  (not ((_ is O_TSLL) a!1)))
      )
      CHC_COMP_FALSE
    )
  )
)
(assert
  (forall ( (CHC_COMP_UNUSED Bool) ) 
    (=>
      (and
        CHC_COMP_FALSE
      )
      false
    )
  )
)

(check-sat)
(exit)
